c --- [ banner ] -------------------------------------------------------------
c 
c CaDiCaL Radically Simplified CDCL SAT Solver
c Copyright (c) 2016-2021 A. Biere, M. Fleury, N. Froleyks
c 
c Version 1.5.2 ca2dd1661408261d5d9922f656c807ded88978da
c g++ (Ubuntu 7.5.0-3ubuntu1~18.04) 7.5.0 -Wall -Wextra -O3 -DNDEBUG
c Sat Feb 26 22:54:12 EST 2022 Linux fac-vanhoeve01 5.4.0-99-generic x86_64
c 
c --- [ parsing input ] ------------------------------------------------------
c 
c reading DIMACS file from '<stdin>' (use '-h' for a list of common options)
c found 'p cnf 12460 26968' header
c parsed 26968 clauses in 0.02 seconds process time
c disconnecting from '<stdin>'
c after reading 410631 bytes 0.4 MB
c 
c --- [ options ] ------------------------------------------------------------
c 
c all options are set to their default value
c 
c --- [ solving ] ------------------------------------------------------------
c 
c time measured in process time since initialization
c 
c  seconds  reductions  redundant  irredundant
c         MB    restarts       trail      variables
c          level   conflicts       glue        remaining
c 
c *  0.02  7  0 0   0    0    0  0% 0 26958 12090 97%
c {  0.03  8  0 0   0    0    0  0% 0 26958 12090 97%
c -  0.12  9 400 1  47  300  286 65% 8 26598 12090 97%
c -  0.26 10 147 2 101  901  738 69% 9 26598 12090 97%
c }  0.29 10 134 2 118 1002  838 69% 9 26598 12090 97%
c [  0.29 10  0 2 118 1002  838  0% 0 26598 12090 97%
c O  0.29 10 15 2 118 1003  839 94% 11 26598 12090 97%
c -  0.41 10 15 3 118 1802  971 78% 12 26598 12090 97%
c s  0.50  9 16 3 119 2314 1341 77% 12 26598 12090 97%
c e  0.71 14 16 3 119 2314   59 77% 12 16351 3468 28%
c ^  0.73 14 16 3 119 2314   59 77% 12 16351 3468 28%
c ]  0.81 14 18 3 119 3003  603 66% 13 16351 3468 28%
c {  0.81 14 134 3 119 3003  603 246% 9 16351 3468 28%
c -  0.81 14 134 4 120 3003  579 246% 9 16351 3468 28%
c F  0.82 14 134 4 120 3004  580 246% 9 16351 3468 28%
c -  1.01 14 64 5 361 4504 1525 142% 11 16351 3468 28%
c p  1.08 14 56 5 400 5000 1994 130% 11 16351 3468 28%
c #  1.18 14 46 5 448 6009 2857 113% 11 16351 3468 28%
c -  1.21 14 44 6 464 6309 2062 110% 11 16351 3468 28%
c }  1.27 14 40 6 467 7006 2584 104% 11 16351 3468 28%
c 
c  seconds  reductions  redundant   irredundant
c         MB    restarts       trail      variables
c          level   conflicts       glue        remaining
c 
c [  1.27 14 18 6 467 7006 2584 66% 13 16351 3468 28%
c -  1.41 14 18 7 468 8409 2266 66% 13 16351 3468 28%
c I  1.57 14 17 7 469 10010 3363 66% 13 16351 3468 28%
c -  1.66 14 25 8 470 10811 2715 65% 16 16351 3468 28%
c s  1.73 14 28 8 471 11267 3117 66% 17 16351 3468 28%
c s  1.78 14 28 8 471 11267 3115 66% 17 16351 3468 28%
c ^  1.78 14 28 8 471 11267 3115 66% 17 16351 3468 28%
c -  2.04 14 29 9 472 13511 3440 70% 18 16351 3468 28%
c p  2.19 14 30 9 472 15000 4738 70% 19 16351 3468 28%
c ]  2.20 14 30 9 472 15007 4742 70% 19 16351 3468 28%
c {  2.20 14 40 9 472 15007 4742 104% 11 16351 3468 28%
c B  2.20 14 40 9 472 15011 4746 104% 11 16351 3468 28%
c -  2.37 14 35 10 587 16511 3684 96% 11 16351 3468 28%
c -  2.68 14 28 11 727 19814 3955 86% 11 16351 3468 28%
c W  2.82 14 28 11 745 21014 4962 82% 11 16351 3468 28%
c -  3.04 14 25 12 776 23415 4471 79% 11 16351 3468 28%
c s  3.18 14 24 12 816 24691 5549 78% 11 16351 3468 28%
c s  3.24 14 24 12 816 24691 5546 78% 11 16351 3468 28%
c ^  3.24 14 24 12 816 24691 5546 78% 11 16351 3468 28%
c -  3.48 14 23 13 875 27315 5005 76% 11 16351 3468 28%
c 
c  seconds  reductions    redundant   irredundant
c         MB     restarts        trail      variables
c          level     conflicts       glue        remaining
c 
c F  3.54 14 23 13 875 28016 5531 75% 11 16351 3468 28%
c p  3.74 14 22 13 962 30001 7269 74% 11 16351 3468 28%
c }  3.84 14 22 13 986 31011 8073 74% 11 16351 3468 28%
c [  3.84 14 30 13 986 31011 8073 70% 19 16351 3468 28%
c -  3.89 14 29 14 986 31516 5193 70% 18 16351 3468 28%
c -  4.34 14 25 15 989 36016 4351 72% 17 16351 3468 28%
c B  4.34 14 25 15 989 36017 4352 72% 17 16351 3468 28%
c -  4.89 14 31 16 992 40817 5404 70% 20 16351 3468 28%
c s  5.10 14 31 16 993 42591 6702 69% 21 16351 3468 28%
c w  5.13 14 31 16 993 42591 6701 69% 21 16351 3468 28%
c s  5.16 14 31 16 993 42591 6701 69% 21 16351 3468 28%
c ^  5.16 14 31 16 993 42591 6701 69% 21 16351 3468 28%
c W  5.49 14 31 16 993 45019 8509 68% 21 16351 3468 28%
c -  5.60 14 31 17 994 45919 5755 67% 21 16351 3468 28%
c p  6.04 14 31 17 994 50002 8734 66% 21 16351 3468 28%
c -  6.19 14 31 18 994 51320 6457 66% 21 16351 3468 28%
c O  6.58 14 31 18 995 55022 9170 66% 21 16351 3468 28%
c -  6.80 14 30 19 997 57021 6489 67% 21 16351 3468 28%
c ]  7.38 14 28 19 1001 63014 10369 67% 20 16351 3468 28%
c {  7.38 14 22 19 1001 63014 10369 74% 11 16351 3468 28%
c 
c  seconds  reductions     redundant   irredundant
c         MB     restarts         trail      variables
c          level      conflicts       glue        remaining
c 
c -  7.39 14 22 20 1003 63023 6243 74% 11 16351 3468 28%
c s  7.60 14 21 20 1091 64967 7879 73% 11 16351 3468 28%
c w  7.64 14 21 20 1091 64967 7879 73% 11 16351 3468 28%
c e  7.72 15 21 20 1091 64967 1918 73% 11 28531 1878 15%
c s  7.80 15 21 20 1091 64967 1918 73% 11 28531 1878 15%
c ^  7.81 15 21 20 1091 64967 1918 73% 11 28531 1878 15%
c B  7.92 15 21 20 1117 66025 2715 64% 11 28531 1878 15%
c -  8.23 17 20 21 1204 69324 4120 66% 11 28531 1878 15%
c p  8.79 17 19 21 1456 75002 8574 67% 11 28531 1878 15%
c -  8.89 17 19 22 1460 75928 6794 67% 11 28531 1878 15%
c W  9.20 17 19 22 1501 78027 8612 66% 11 28531 1878 15%
c -  9.81 16 18 23 1903 82829 8192 67% 11 28531 1878 15%
c - 10.63 16 18 24 2466 90031 8660 69% 11 28531 1878 15%
c # 10.76 16 18 24 2574 91029 9448 69% 11 28531 1878 15%
c - 11.56 15 18 25 2972 97531 8733 69% 11 28531 1878 15%
c p 12.40 15 17 25 3378 105002 14724 70% 11 28531 1878 15%
c B 12.42 15 17 25 3378 105031 14751 70% 11 28531 1878 15%
c - 12.48 17 17 26 3421 105331 9223 70% 11 28531 1878 15%
c s 13.16 17 17 26 3503 112071 13874 70% 11 28531 1878 15%
c w 13.26 17 17 26 3503 112071 13871 70% 11 28531 1878 15%
c 
c  seconds  reductions       redundant   irredundant
c         MB     restarts           trail      variables
c          level      conflicts         glue        remaining
c 
c s 13.36 17 17 26 3503 112071 13866 70% 11 28531 1878 15%
c - 13.54 17 17 27 3615 113433 9053 70% 11 28531 1878 15%
c W 14.36 17 17 27 3911 120032 13994 70% 11 28531 1878 15%
c - 14.54 17 16 28 3946 121835 9195 70% 11 28531 1878 15%
c } 15.13 17 17 28 4351 127014 13278 70% 11 28531 1878 15%
c [ 15.13 17 28 28 4351 127014 13278 124% 20 28531 1878 15%
c - 15.46 16 28 29 4351 130535 9467 119% 19 28531 1878 15%
c B 16.00 16 27 29 4356 136034 13231 113% 19 28531 1878 15%
c - 16.46 16 29 30 4358 139535 10154 109% 20 28531 1878 15%
c p 16.56 16 29 30 4358 140003 10569 109% 20 28531 1878 15%
c - 17.48 16 30 31 4359 148835 10250 102% 21 28531 1878 15%
c W 18.06 16 31 31 4360 153035 13531 99% 22 28531 1878 15%
c - 18.65 16 31 32 4360 158436 11477 96% 22 28531 1878 15%
c - 19.81 16 32 33 4361 168338 12501 93% 23 28531 1878 15%
c I 20.13 16 32 33 4363 171037 14768 92% 23 28531 1878 15%
c - 21.00 17 34 34 4367 178541 13056 89% 23 28531 1878 15%
c p 21.20 17 34 34 4367 180003 14366 89% 23 28531 1878 15%
c - 22.17 16 33 35 4374 189041 11108 86% 23 28531 1878 15%
c B 22.28 16 32 35 4374 190038 11748 86% 23 28531 1878 15%
c - 23.31 19 32 36 4375 199842 12838 85% 23 28531 1878 15%
c 
c  seconds  reductions       redundant   irredundant
c         MB     restarts           trail      variables
c          level      conflicts         glue        remaining
c 
c W 24.63 19 32 36 4382 210039 20369 83% 23 28531 1878 15%
c - 24.74 21 32 37 4382 210942 12480 83% 22 28531 1878 15%
c - 26.00 21 30 38 4389 222342 11735 81% 22 28531 1878 15%
c p 26.32 21 30 38 4389 225004 13513 81% 22 28531 1878 15%
c O 26.98 21 29 38 4390 231042 17757 80% 21 28531 1878 15%
c - 27.35 21 29 39 4390 234042 12027 79% 21 28531 1878 15%
c - 28.74 21 27 40 4391 246042 12438 78% 21 28531 1878 15%
c B 29.58 21 27 40 4392 253046 16894 77% 20 28531 1878 15%
c ] 29.83 21 26 40 4392 255014 18104 77% 20 28531 1878 15%
c { 29.83 21 17 40 4392 255014 18104 70% 11 28531 1878 15%
c - 30.30 21 17 41 4608 258345 13812 71% 11 28531 1878 15%
c - 31.86 21 17 42 5269 270947 14748 71% 11 28531 1878 15%
c p 32.34 21 16 42 5300 275005 17747 70% 11 28531 1878 15%
c F 32.48 21 16 42 5364 276048 18596 70% 11 28531 1878 15%
c - 33.34 21 16 43 5709 283847 15103 71% 11 28531 1878 15%
c - 34.75 21 16 44 6362 297047 15586 71% 11 28531 1878 15%
c B 35.14 21 16 44 6636 300049 18028 71% 11 28531 1878 15%
c - 36.25 22 16 45 7021 310547 16015 71% 11 28531 1878 15%
c - 37.66 22 16 46 7401 324348 15886 71% 11 28531 1878 15%
c W 37.92 22 16 46 7403 325050 16434 71% 11 28531 1878 15%
c 
c  seconds  reductions       redundant   irredundant
c         MB     restarts           trail      variables
c          level      conflicts         glue        remaining
c 
c p 38.44 22 16 46 7545 330006 20263 71% 11 28531 1878 15%
c - 39.37 22 16 47 7851 338448 16471 71% 11 28531 1878 15%
c # 40.71 22 16 47 8390 351052 26178 71% 11 28531 1878 15%
c - 40.90 22 16 48 8421 352849 16942 71% 11 28531 1878 15%
c - 42.49 22 16 49 8979 367549 17483 71% 11 28531 1878 15%
c B 43.69 22 16 49 9442 378053 25441 71% 11 28531 1878 15%
c - 44.24 22 16 50 9722 382549 18109 71% 11 28531 1878 15%
c p 45.04 22 15 50 9970 390006 23866 71% 11 28531 1878 15%
c - 45.82 22 15 51 10084 397851 18226 71% 11 28531 1878 15%
c s 45.91 22 15 51 10084 397851 18147 71% 11 28531 1878 15%
c w 46.30 22 15 51 10084 397851 18140 71% 11 28531 1878 15%
c s 46.38 22 15 51 10084 397851 18134 71% 11 28531 1878 15%
c W 47.59 22 15 51 10243 406055 24216 71% 11 28531 1878 15%
c - 48.42 22 15 52 10554 413456 18899 71% 11 28531 1878 15%
c - 50.05 22 15 53 11043 429356 19243 71% 11 28531 1878 15%
c F 50.70 22 15 53 11248 435057 23557 71% 11 28531 1878 15%
c - 51.90 23 15 54 11634 445556 19780 71% 11 28531 1878 15%
c p 53.04 23 15 54 11915 455009 26999 71% 11 28531 1878 15%
c - 53.96 23 15 55 12251 462057 20224 71% 11 28531 1878 15%
c B 54.29 23 15 55 12315 465058 22521 71% 11 28531 1878 15%
c 
c  seconds  reductions        redundant   irredundant
c         MB      restarts           trail      variables
c          level       conflicts         glue        remaining
c 
c - 55.99 23 15 56 12744 478858 20390 71% 11 28531 1878 15%
c - 58.13 23 15 57 13518 495958 20978 71% 11 28531 1878 15%
c W 58.46 23 15 57 13520 496060 21047 71% 11 28531 1878 15%
c } 60.23 23 15 57 14206 511018 32746 70% 11 28531 1878 15%
c [ 60.23 23 26 57 14206 511018 32746 77% 20 28531 1878 15%
c - 60.53 23 26 58 14206 513358 21753 77% 20 28531 1878 15%
c p 61.91 23 26 58 14206 525011 30973 75% 19 28531 1878 15%
c W 62.82 23 26 58 14206 528063 33769 75% 20 28531 1878 15%
c - 63.24 23 27 59 14206 531059 23057 75% 20 28531 1878 15%
c - 65.58 27 28 60 14213 549060 22686 75% 21 28531 1878 15%
c I 67.31 27 28 60 14220 561066 32539 75% 21 28531 1878 15%
c - 68.82 24 31 61 14221 567360 23847 73% 22 28531 1878 15%
c - 73.05 29 35 62 14229 585960 25458 73% 24 28531 1878 15%
c B 74.42 29 35 62 14235 595068 32978 73% 24 28531 1878 15%
c p 75.17 29 35 62 14236 600011 37452 74% 24 28531 1878 15%
c - 75.81 24 35 63 14236 604860 25771 74% 24 28531 1878 15%
c - 78.46 27 33 64 14238 624060 26604 75% 23 28531 1878 15%
c W 79.74 27 33 64 14243 630069 31799 74% 23 28531 1878 15%
c - 81.43 27 32 65 14250 643560 25659 74% 22 28531 1878 15%
c - 84.02 27 32 66 14258 663360 24590 74% 22 28531 1878 15%
c 
c  seconds  reductions        redundant   irredundant
c         MB      restarts           trail      variables
c          level       conflicts         glue        remaining
c 
c O 84.41 27 32 66 14259 666072 26903 74% 22 28531 1878 15%
c p 86.27 27 30 66 14266 680011 36645 74% 22 28531 1878 15%
c - 86.82 27 30 67 14267 683460 22734 74% 22 28531 1878 15%
c B 89.25 27 29 67 14268 703074 35850 74% 21 28531 1878 15%
c - 89.38 27 29 68 14268 703861 22946 74% 21 28531 1878 15%
c - 91.94 28 28 69 14269 724562 24804 75% 21 28531 1878 15%
c s 92.05 28 28 69 14269 724562 24690 75% 21 28531 1878 15%
c w 92.48 28 28 69 14269 724562 24682 75% 21 28531 1878 15%
c s 92.58 28 28 69 14269 724562 24671 75% 21 28531 1878 15%
c W 95.65 28 27 69 14270 741075 35631 75% 21 28531 1878 15%
c - 96.34 28 27 70 14270 745562 23509 75% 20 28531 1878 15%
c p 99.06 28 26 70 14270 765012 37187 75% 20 28531 1878 15%
c - 99.45 28 26 71 14270 766864 23979 75% 20 28531 1878 15%
c I 101.09 28 25 71 14270 780077 33709 74% 20 28531 1878 15%
c 
c caught signal 15 (SIGTERM)
c 
c --- [ result ] -------------------------------------------------------------
c 
c UNKNOWN
c 
c --- [ run-time profiling ] -------------------------------------------------
c 
c process time taken by individual solving procedures
c (percentage relative to process time for solving)
c 
c        98.91   97.12% search
c        57.80   56.76% stable
c        37.89   37.20% unstable
c         3.21    3.15% walk
c         2.94    2.88% simplify
c         1.04    1.02% vivify
c         0.68    0.67% subsume
c         0.48    0.48% probe
c         0.36    0.35% elim
c         0.13    0.12% ternary
c         0.02    0.02% parse
c         0.01    0.01% lucky
c   =================================
c       101.85   99.98% solve
c 
c last line shows process time for solving
c (percentage relative to total process time)
c 
c --- [ statistics ] ---------------------------------------------------------
c 
c chronological:            126965        16.19 %  of conflicts
c conflicts:                784412      7701.91    per second
c decisions:               1043318     10244.03    per second
c eliminated:                10212        81.96 %  of all variables
c fixed:                       370         2.97 %  of all variables
c learned:                  771145        98.31 %  per conflict
c learned_lits:           41267534       100.00 %  learned literals
c minimized:                     0         0.00 %  learned literals
c shrunken:               21622387        52.40 %  learned literals
c minishrunken:            1880472         4.56 %  learned literals
c propagations:          164037387         1.61 M  per second
c reduced:                  559699        71.35 %  per conflict
c rephased:                     39     20113.13    interval
c restarts:                  14270        54.97    interval
c stabilizing:                   5        56.53 %  of conflicts
c subsumed:                 166412         9.75 %  of all clauses
c strengthened:               3698         0.22 %  of all clauses
c ternary:                       1         0.01 %  of resolved
c vivified:                     57         0.00 %  of all clauses
c walked:                       12     65367.67    interval
c weakened:                  53040         9.70    average size
c 
c seconds are measured in process time for solving
c 
c --- [ resources ] ----------------------------------------------------------
c 
c total process time since initialization:       101.87    seconds
c total real time since initialization:          101.88    seconds
c maximum resident set size of process:           28.71    MB
c 
c raising signal 15 (SIGTERM)
